# Solution for model icep
# Objective value = 269
flowLmbda[0,0] 3
flowLmbda[1,0] 3
flowBeta[0,0,0,0] 0
flowBeta[0,0,0,1] 0
flowBeta[0,0,0,2] 0
flowBeta[0,0,1,0] 0
flowBeta[0,0,1,1] 0
flowBeta[0,0,1,2] 6
flowBeta[0,1,0,0] 0
flowBeta[0,1,0,1] 0
flowBeta[0,1,0,2] 0
flowBeta[0,1,1,0] 6
flowBeta[0,1,1,1] 0
flowBeta[0,1,1,2] 0
flowBeta[0,2,0,0] 0
flowBeta[0,2,0,1] 0
flowBeta[0,2,0,2] 0
flowBeta[0,2,1,0] 6
flowBeta[0,2,1,1] 0
flowBeta[0,2,1,2] 0
flowBeta[0,3,0,0] 3
flowBeta[0,3,0,1] 0
flowBeta[0,3,0,2] 0
flowBeta[0,3,1,0] 3
flowBeta[0,3,1,1] 0
flowBeta[0,3,1,2] 0
flowBeta[0,4,0,0] 6
flowBeta[0,4,0,1] 0
flowBeta[0,4,0,2] 0
flowBeta[0,4,1,0] 0
flowBeta[0,4,1,1] 0
flowBeta[0,4,1,2] 0
flowBeta[0,5,0,0] 0
flowBeta[0,5,0,1] 0
flowBeta[0,5,0,2] 6
flowBeta[0,5,1,0] 0
flowBeta[0,5,1,1] 0
flowBeta[0,5,1,2] 0
flowBeta[0,6,0,0] 6
flowBeta[0,6,0,1] 0
flowBeta[0,6,0,2] 0
flowBeta[0,6,1,0] 0
flowBeta[0,6,1,1] 0
flowBeta[0,6,1,2] 0
flowBeta[0,7,0,0] 6
flowBeta[0,7,0,1] 0
flowBeta[0,7,0,2] 0
flowBeta[0,7,1,0] 0
flowBeta[0,7,1,1] 0
flowBeta[0,7,1,2] 0
flowBeta[0,8,0,0] 0
flowBeta[0,8,0,1] 0
flowBeta[0,8,0,2] 0
flowBeta[0,8,1,0] 0
flowBeta[0,8,1,1] 6
flowBeta[0,8,1,2] 0
flowBeta[0,9,0,0] 0
flowBeta[0,9,0,1] 0
flowBeta[0,9,0,2] 0
flowBeta[0,9,1,0] 0
flowBeta[0,9,1,1] 0
flowBeta[0,9,1,2] 0
flowGamma[0,0,0,0] 0
flowGamma[0,0,0,1] 0
flowGamma[0,0,1,0] 0
flowGamma[0,0,1,1] 0
flowGamma[0,0,2,0] 6
flowGamma[0,0,2,1] 0
flowGamma[0,1,0,0] 0
flowGamma[0,1,0,1] 6
flowGamma[0,1,1,0] 0
flowGamma[0,1,1,1] 0
flowGamma[0,1,2,0] 0
flowGamma[0,1,2,1] 0
flowGamma[0,2,0,0] 0
flowGamma[0,2,0,1] 6
flowGamma[0,2,1,0] 0
flowGamma[0,2,1,1] 0
flowGamma[0,2,2,0] 0
flowGamma[0,2,2,1] 0
flowGamma[0,3,0,0] 0
flowGamma[0,3,0,1] 6
flowGamma[0,3,1,0] 0
flowGamma[0,3,1,1] 0
flowGamma[0,3,2,0] 0
flowGamma[0,3,2,1] 0
flowGamma[0,4,0,0] 0
flowGamma[0,4,0,1] 6
flowGamma[0,4,1,0] 0
flowGamma[0,4,1,1] 0
flowGamma[0,4,2,0] 0
flowGamma[0,4,2,1] 0
flowGamma[0,5,0,0] 0
flowGamma[0,5,0,1] 0
flowGamma[0,5,1,0] 0
flowGamma[0,5,1,1] 0
flowGamma[0,5,2,0] 0
flowGamma[0,5,2,1] 6
flowGamma[0,6,0,0] 0
flowGamma[0,6,0,1] 6
flowGamma[0,6,1,0] 0
flowGamma[0,6,1,1] 0
flowGamma[0,6,2,0] 0
flowGamma[0,6,2,1] 0
flowGamma[0,7,0,0] 0
flowGamma[0,7,0,1] 6
flowGamma[0,7,1,0] 0
flowGamma[0,7,1,1] 0
flowGamma[0,7,2,0] 0
flowGamma[0,7,2,1] 0
flowGamma[0,8,0,0] 0
flowGamma[0,8,0,1] 0
flowGamma[0,8,1,0] 0
flowGamma[0,8,1,1] 6
flowGamma[0,8,2,0] 0
flowGamma[0,8,2,1] 0
flowGamma[0,9,0,0] 0
flowGamma[0,9,0,1] 0
flowGamma[0,9,1,0] 0
flowGamma[0,9,1,1] 0
flowGamma[0,9,2,0] 0
flowGamma[0,9,2,1] 0
flowEpsilon[0,0,0,0] 6
flowEpsilon[0,0,1,0] 0
flowEpsilon[0,1,0,0] 0
flowEpsilon[0,1,1,0] 6
flowEpsilon[0,2,0,0] 0
flowEpsilon[0,2,1,0] 6
flowEpsilon[0,3,0,0] 0
flowEpsilon[0,3,1,0] 6
flowEpsilon[0,4,0,0] 0
flowEpsilon[0,4,1,0] 6
flowEpsilon[0,5,0,0] 0
flowEpsilon[0,5,1,0] 6
flowEpsilon[0,6,0,0] 0
flowEpsilon[0,6,1,0] 6
flowEpsilon[0,7,0,0] 0
flowEpsilon[0,7,1,0] 6
flowEpsilon[0,8,0,0] 0
flowEpsilon[0,8,1,0] 6
flowEpsilon[0,9,0,0] 0
flowEpsilon[0,9,1,0] 0
zetaSelect[0,0,0] 0
zetaSelect[0,0,1] 0
zetaSelect[0,0,2] 1
zetaSelect[0,1,0] 0
zetaSelect[0,1,1] 0
zetaSelect[0,1,2] 0
gammaSelect[0,0,0,0] 0
gammaSelect[0,0,0,1] 0
gammaSelect[0,0,1,0] 0
gammaSelect[0,0,1,1] 0
gammaSelect[0,0,2,0] 1
gammaSelect[0,0,2,1] 0
gammaSelect[0,1,0,0] 0
gammaSelect[0,1,0,1] 1
gammaSelect[0,1,1,0] 0
gammaSelect[0,1,1,1] 0
gammaSelect[0,1,2,0] 0
gammaSelect[0,1,2,1] 0
gammaSelect[0,2,0,0] 0
gammaSelect[0,2,0,1] 1
gammaSelect[0,2,1,0] 0
gammaSelect[0,2,1,1] 0
gammaSelect[0,2,2,0] 0
gammaSelect[0,2,2,1] 0
gammaSelect[0,3,0,0] 0
gammaSelect[0,3,0,1] 1
gammaSelect[0,3,1,0] 0
gammaSelect[0,3,1,1] 0
gammaSelect[0,3,2,0] 0
gammaSelect[0,3,2,1] 0
gammaSelect[0,4,0,0] 0
gammaSelect[0,4,0,1] 1
gammaSelect[0,4,1,0] 0
gammaSelect[0,4,1,1] 0
gammaSelect[0,4,2,0] 0
gammaSelect[0,4,2,1] 0
gammaSelect[0,5,0,0] 0
gammaSelect[0,5,0,1] -1.1114708911012225e-11
gammaSelect[0,5,1,0] 0
gammaSelect[0,5,1,1] 0
gammaSelect[0,5,2,0] 0
gammaSelect[0,5,2,1] 1.0000000000064864e+00
gammaSelect[0,6,0,0] 0
gammaSelect[0,6,0,1] 1
gammaSelect[0,6,1,0] 0
gammaSelect[0,6,1,1] 0
gammaSelect[0,6,2,0] 0
gammaSelect[0,6,2,1] 0
gammaSelect[0,7,0,0] -1.2170375236002747e-12
gammaSelect[0,7,0,1] 1.0000000000004485e+00
gammaSelect[0,7,1,0] 0
gammaSelect[0,7,1,1] 0
gammaSelect[0,7,2,0] 0
gammaSelect[0,7,2,1] 0
gammaSelect[0,8,0,0] 0
gammaSelect[0,8,0,1] 0
gammaSelect[0,8,1,0] 0
gammaSelect[0,8,1,1] 1.0000000000108342e+00
gammaSelect[0,8,2,0] 0
gammaSelect[0,8,2,1] 0
gammaSelect[0,9,0,0] 0
gammaSelect[0,9,0,1] 0
gammaSelect[0,9,1,0] 0
gammaSelect[0,9,1,1] -1.6970764398523262e-12
gammaSelect[0,9,2,0] 0
gammaSelect[0,9,2,1] 0
deltaSelect[0,0,0,0] 1
deltaSelect[0,0,0,1] 0
deltaSelect[0,0,0,2] 0
deltaSelect[0,0,1,0] 0
deltaSelect[0,0,1,1] 0
deltaSelect[0,0,1,2] 0
deltaSelect[0,1,0,0] 0
deltaSelect[0,1,0,1] 0
deltaSelect[0,1,0,2] 0
deltaSelect[0,1,1,0] 1
deltaSelect[0,1,1,1] 0
deltaSelect[0,1,1,2] 0
deltaSelect[0,2,0,0] 0
deltaSelect[0,2,0,1] 0
deltaSelect[0,2,0,2] 0
deltaSelect[0,2,1,0] 1
deltaSelect[0,2,1,1] 0
deltaSelect[0,2,1,2] 0
deltaSelect[0,3,0,0] 0
deltaSelect[0,3,0,1] 0
deltaSelect[0,3,0,2] 0
deltaSelect[0,3,1,0] 1
deltaSelect[0,3,1,1] 0
deltaSelect[0,3,1,2] 0
deltaSelect[0,4,0,0] 0
deltaSelect[0,4,0,1] 0
deltaSelect[0,4,0,2] 0
deltaSelect[0,4,1,0] -1.6196443245568095e-11
deltaSelect[0,4,1,1] 0
deltaSelect[0,4,1,2] 1.0000000000037976e+00
deltaSelect[0,5,0,0] 0
deltaSelect[0,5,0,1] 0
deltaSelect[0,5,0,2] 0
deltaSelect[0,5,1,0] 1
deltaSelect[0,5,1,1] 0
deltaSelect[0,5,1,2] 0
deltaSelect[0,6,0,0] 0
deltaSelect[0,6,0,1] 0
deltaSelect[0,6,0,2] 0
deltaSelect[0,6,1,0] 1
deltaSelect[0,6,1,1] 0
deltaSelect[0,6,1,2] 0
deltaSelect[0,7,0,0] 0
deltaSelect[0,7,0,1] 0
deltaSelect[0,7,0,2] 0
deltaSelect[0,7,1,0] 0
deltaSelect[0,7,1,1] 1.0000000000108342e+00
deltaSelect[0,7,1,2] 0
deltaSelect[0,8,0,0] 0
deltaSelect[0,8,0,1] 0
deltaSelect[0,8,0,2] 0
deltaSelect[0,8,1,0] 0
deltaSelect[0,8,1,1] 0
deltaSelect[0,8,1,2] 0
deltaSelect[0,9,0,0] 0
deltaSelect[0,9,0,1] 0
deltaSelect[0,9,0,2] 0
deltaSelect[0,9,1,0] 0
deltaSelect[0,9,1,1] 0
deltaSelect[0,9,1,2] 0
timeForResourceI[0] 269
totalTime 269
